%%% static parameters %%%
timespan = 1;
initial_fruit_bushes = [40];
initial_foragers = [40];
ticks_to_flee = [100];
bush_growth_chance = [10];
rate_of_mutation = [5.0];
%%% dynamic parameters %%%
mean_strength_th = 0.9394185683092376;
mean_strength_w = 22;
mean_speed_th = 0.924163513484766;
mean_speed_w = 72;
mean_intelligence_th = 0.9845296681608189;
mean_intelligence_w = 64;
murder_rate_th = 0.14840310750036378;
murder_rate_w = 14;
age_death_rate_th = 0.7419482542671353;
age_death_rate_w = 57;
starvation_rate_th = 0.11788659536498991;
starvation_rate_w = 53;
mean_reactive_aggression_th = 0.615035236708073;
mean_reactive_aggression_w = 46;
mean_proactive_aggression_th = 0.02263786063611206;
mean_proactive_aggression_w = 13;
average_population_th = 754;
average_population_w = 99;
